c description: Random 3-CNF over 16 variables and 68 clauses
c generator: CNFgen (0.9.2)
c copyright: (C) 2012-2022 Massimo Lauria <massimo.lauria@uniroma1.it>
c url: https://massimolauria.net/cnfgen
c command line: cnfgen --output ../CNF/16_bit_68_94.cnf randkcnf 3 16 68
c
p cnf 16 68
-7 -9 15 0
3 6 -16 0
-7 12 -14 0
3 -4 13 0
4 -7 -11 0
4 -5 -8 0
3 8 -15 0
-7 -14 16 0
1 11 -16 0
-7 8 13 0
5 8 13 0
-10 -11 15 0
3 -7 -12 0
-5 13 -15 0
1 12 16 0
5 8 -11 0
-6 8 -14 0
-3 -8 -9 0
4 -11 -16 0
3 -4 5 0
4 -13 -14 0
2 14 -16 0
3 -13 16 0
-4 9 15 0
-13 14 16 0
-5 11 -15 0
4 -6 -9 0
1 5 9 0
4 -7 9 0
-4 6 8 0
-6 9 -16 0
-7 10 -12 0
10 12 -15 0
3 -6 -9 0
2 3 -8 0
-2 -6 8 0
3 -5 -6 0
2 -10 -16 0
-10 -11 13 0
-6 -12 -16 0
-3 5 -6 0
6 -10 -14 0
1 -10 -15 0
-4 -5 -8 0
1 6 8 0
1 9 11 0
1 -8 15 0
1 11 -14 0
-5 13 15 0
8 -15 -16 0
-5 -9 -13 0
-10 -13 16 0
-4 -6 7 0
3 8 12 0
5 6 -7 0
3 12 -13 0
4 -7 11 0
9 13 14 0
4 9 16 0
6 12 -15 0
-2 -8 13 0
-12 13 -14 0
-1 10 -16 0
-5 7 -12 0
6 -8 -13 0
-7 9 11 0
-2 3 -11 0
-5 -7 -12 0
